DIMENSION :18
NODE_COORD_SECTION
1 -5.685565401029862 81.14570548259195
2 -49.01775501930161 13.237063823045432
3 -73.3382799575628 96.59246915469407
4 6.911396934622886 38.35060426319694
5 95.74225835560307 7.757782269179046
6 13.408365773583 -64.76625643102913
7 53.21100883753988 -23.642283766940864
8 94.5815587548648 52.267508312551286
9 -99.30664147210464 53.68239693343344
10 17.125852939731175 42.926106346920534
11 84.64119572324324 -40.52116795713654
12 -99.46364307953586 72.8905147965595
13 -58.47135141415733 -83.8690109095102
14 94.57163500435823 -52.95019838048554
15 -56.14249167905112 -59.39088904499936
16 11.64341188119839 -84.39964620680948
17 -57.831145545793646 92.94921654072647
18 -87.83864041561178 -94.6326171161018
EOF
